(set-logic QF_S)
(declare-fun var0 () String)
(declare-fun var1 () String)
(declare-fun var2 () String)
(declare-fun var5 () String)
(declare-fun var8 () String)
(declare-fun var9 () String)
(declare-fun var17 () String)
(declare-fun var19 () String)
(declare-fun var20 () String)
(assert (not (str.suffixof (str.substr (str.substr (str.replace var2 var19 var1) (- (str.len var17) (- 125)) (+ (str.len var8) 125)) (- (str.len (str.substr var5 0 273)) (- 125)) (+ (str.len (str.substr var9 0 398)) 155)) (str.++ (str.substr var17 0 273) (str.replace var5 var20 var17)))))
(assert (= var17 "HCjKzRIwUzlCHoTTk3ImUf9KbSLo8zpsxE6uHgwYRBO4yDMpAuCRYZWGC5WTSOLRDu5nVAPPVtwCFh35ExTl4XYPCYxOh5jATrnArcNPzvlsaEA5u0XI6D7N3dkpP3lzkcjovqnePz2UbnxuX6oyiYN3vPiWUM4EoELc8chyb6CcuoW76JLknMB3x4OGJRjk03uhquP2Zr0Nw0TDO3tmVf8ZBSRs4ZbjlKhU0Jj4RbjbF6nQu2VcL341qvV8cqAAczon44b9nJDLGwttE"))
(check-sat)
